
c turning on binary mode checking

c parsing input formula with 27 variables and 1296 clauses

c finished parsing, read 1145 bytes from proof file

c detected empty clause; start verification via backward checking

c 244 of 1296 clauses in core                            

c 113 of 137 lemmas in core using 1316 resolution steps

c 0 RAT lemmas in core; 9 redundant literals in core lemmas

s VERIFIED

c verification time: 0.055 seconds
